
Gurobi 11.0.3 (linux64) logging started Mon Aug 25 16:17:09 2025

Set parameter LogFile to value "/home/yihong/Coding/OR_SUC/SUC_epstheta_results_bigM100000_thread4/case24_ieee_rts_theta0.001_epsilon0.2_gurobi_seed210000_num_gen100_N_WDR50_load_scaling_factor1_ori_eps_T2quadra_cost_bc1.03.txt"
Set parameter TimeLimit to value 3600
Gurobi Optimizer version 11.0.3 build v11.0.3rc0 (linux64 - "Ubuntu 20.04.6 LTS")

CPU model: AMD EPYC 7532 32-Core Processor, instruction set [SSE2|AVX|AVX2]
Thread count: 64 physical cores, 128 logical processors, using up to 4 threads

Academic license 2399124 - for non-commercial use only - registered to yi___@ed.ac.uk
Optimize a model with 5070 rows, 2531 columns and 192230 nonzeros
Model fingerprint: 0x1eb01a55
Model has 200 quadratic constraints
Variable types: 2331 continuous, 200 integer (200 binary)
Coefficient statistics:
  Matrix range     [3e-04, 2e+03]
  QMatrix range    [2e-03, 8e-03]
  QLMatrix range   [5e-02, 6e+01]
  Objective range  [1e+00, 1e+00]
  Bounds range     [1e+00, 1e+00]
  RHS range        [5e-02, 9e+03]
Presolve removed 4376 rows and 1234 columns
Presolve time: 0.04s
Presolved: 694 rows, 1297 columns, 5335 nonzeros
Presolved model has 200 quadratic constraint(s)
Variable types: 1097 continuous, 200 integer (200 binary)

Root relaxation: objective 1.930756e+03, 469 iterations, 0.00 seconds (0.00 work units)

    Nodes    |    Current Node    |     Objective Bounds      |     Work
 Expl Unexpl |  Obj  Depth IntInf | Incumbent    BestBd   Gap | It/Node Time

     0     0 1930.75580    0    4          - 1930.75580      -     -    0s
     0     0 37395.4443    0   58          - 37395.4443      -     -    0s
     0     0 64681.0088    0   20          - 64681.0088      -     -    0s
     0     0 64683.3028    0   20          - 64683.3028      -     -    0s
     0     0 64694.0866    0    6          - 64694.0866      -     -    0s
     0     0 64695.5342    0    6          - 64695.5342      -     -    0s
     0     0 64695.7636    0    6          - 64695.7636      -     -    0s
     0     0 64695.7636    0    6          - 64695.7636      -     -    0s
     0     2 64695.7685    0    6          - 64695.7685      -     -    0s
H   18    18                    64701.950570 64699.4056  0.00%  12.5    0s
*   18    18               5    64701.950570 64699.4056  0.00%  12.7    0s

Cutting planes:
  Gomory: 9
  Implied bound: 37
  MIR: 20
  Flow cover: 73

Explored 19 nodes (1517 simplex iterations) in 0.36 seconds (0.27 work units)
Thread count was 4 (of 128 available processors)

Solution count 2: 64702 64702 

Optimal solution found (tolerance 1.00e-03)
Warning: max constraint violation (2.4355e-07) exceeds tolerance
Best objective 6.470195057010e+04, best bound 6.469940563988e+04, gap 0.0039%

Gurobi 11.0.3 (linux64) logging started Mon Aug 25 16:17:10 2025

Set parameter LogFile to value "/home/yihong/Coding/OR_SUC/SUC_epstheta_results_bigM100000_thread4/case24_ieee_rts_theta0.001_epsilon0.2_gurobi_seed210000_num_gen100_N_WDR50_load_scaling_factor1_ori_eps_T2quadra_cost_bc1.03.txt"
Set parameter TimeLimit to value 3600
Gurobi Optimizer version 11.0.3 build v11.0.3rc0 (linux64 - "Ubuntu 20.04.6 LTS")

CPU model: AMD EPYC 7532 32-Core Processor, instruction set [SSE2|AVX|AVX2]
Thread count: 64 physical cores, 128 logical processors, using up to 4 threads

Academic license 2399124 - for non-commercial use only - registered to yi___@ed.ac.uk
Optimize a model with 11154 rows, 2532 columns and 850651 nonzeros
Model fingerprint: 0x3d2105f1
Model has 201 quadratic constraints
Variable types: 2332 continuous, 200 integer (200 binary)
Coefficient statistics:
  Matrix range     [3e-04, 2e+03]
  QMatrix range    [2e-03, 5e+01]
  QLMatrix range   [5e-02, 6e+01]
  Objective range  [1e+00, 1e+00]
  Bounds range     [2e-01, 1e+00]
  RHS range        [9e-02, 7e+04]
  QRHS range       [5e-02, 5e-02]
Presolve removed 3406 rows and 1121 columns
Presolve time: 0.66s
Presolved: 7950 rows, 1612 columns, 171591 nonzeros
Presolved model has 200 quadratic constraint(s)
Presolved model has 1 bilinear constraint(s)
Warning: Model contains variables with very large bounds participating
         in product terms.
         Presolve was not able to compute smaller bounds for these variables.
         Consider bounding these variables or reformulating the model.


Solving non-convex MIQCP

Variable types: 1408 continuous, 204 integer (204 binary)

Root relaxation: objective 0.000000e+00, 827 iterations, 0.10 seconds (0.23 work units)

    Nodes    |    Current Node    |     Objective Bounds      |     Work
 Expl Unexpl |  Obj  Depth IntInf | Incumbent    BestBd   Gap | It/Node Time

     0     0    0.00000    0    6          -    0.00000      -     -    1s
     0     0    0.00000    0    1          -    0.00000      -     -    1s
     0     0    0.00000    0    1          -    0.00000      -     -   17s
     0     0    0.00000    0    1          -    0.00000      -     -   17s
H    0     0                       0.1995436    0.00000   100%     -   17s
H    0     0                       0.0810182    0.00000   100%     -   17s
     0     0    0.00000    0    2    0.08102    0.00000   100%     -   17s
H    0     0                       0.0357291    0.00000   100%     -   18s
     0     2    0.00000    0    3    0.03573    0.00000   100%     -   18s
*    8     5               2       0.0067160    0.00000   100%  40.5   18s
*   24    10               4       0.0030695    0.00000   100%  22.5   18s
H   30     9                       0.0004653    0.00000   100%  19.6   19s
    42    13    0.00023    4    -    0.00047    0.00000   100%  64.4   20s
H   63    31                       0.0004629    0.00000   100%   128   21s
H   64    31                       0.0002718    0.00000   100%   126   21s
*  340   213              39       0.0001711    0.00000   100%  44.7   24s
   503   342    0.00014   10    3    0.00017    0.00000   100%  36.3   25s
   588   357    0.00010   30    2    0.00017    0.00010  40.0%  32.1   30s
H  591   340                       0.0001223    0.00010  16.0%  31.9   32s

Cutting planes:
  MIR: 6

Explored 592 nodes (21538 simplex iterations) in 32.16 seconds (37.11 work units)
Thread count was 4 (of 128 available processors)

Solution count 10: 0.000122297 0.000171058 0.000271836 ... 0.199544

Optimal solution found (tolerance 1.00e-03)
Best objective 1.222974853788e-04, best bound 1.222280298514e-04, gap 0.0568%
